# Solution for model GNN
# Objective value = 1.8336454032709377e+00
A[0,0] 1
A[0,1] 1
A[0,2] 1
A[0,3] 1
A[1,0] 1
A[1,1] 1
A[1,2] 1
A[1,3] 1
A[2,0] 1
A[2,1] 1
A[2,2] 1
A[2,3] 1
A[3,0] 1
A[3,1] 1
A[3,2] 1
A[3,3] 1
x[0,0] 1
x[0,1] 0
x[0,2] 0
x[0,3] 0
x[0,4] 0
x[0,5] 0
x[0,6] 0
x[0,7] 1
x[0,8] 0
x[0,9] 0
x[0,10] 1
x[0,11] 0
x[0,12] 0
x[0,13] 0
x[1,0] 1
x[1,1] 0
x[1,2] 0
x[1,3] 0
x[1,4] 0
x[1,5] 0
x[1,6] 0
x[1,7] 1
x[1,8] 0
x[1,9] 0
x[1,10] 1
x[1,11] 0
x[1,12] 0
x[1,13] 0
x[2,0] 1
x[2,1] 0
x[2,2] 0
x[2,3] 0
x[2,4] 0
x[2,5] 0
x[2,6] 0
x[2,7] 1
x[2,8] 0
x[2,9] 0
x[2,10] 1
x[2,11] 0
x[2,12] 0
x[2,13] 0
x[3,0] 1
x[3,1] 0
x[3,2] 0
x[3,3] 0
x[3,4] 0
x[3,5] 0
x[3,6] 0
x[3,7] 1
x[3,8] 0
x[3,9] 0
x[3,10] 1
x[3,11] 0
x[3,12] 0
x[3,13] 0
c[0,0,0] 0
c[0,0,1] 0
c[0,0,2] 0
c[0,0,3] 0
c[0,0,4] 0
c[0,0,5] 0
c[0,0,6] 0
c[0,0,7] 0
c[0,0,8] 0
c[0,0,9] 0
c[0,0,10] 0
c[0,0,11] 0
c[0,0,12] 0
c[0,0,13] 0
c[0,0,14] 0
c[0,0,15] 0
c[0,0,16] 0
c[0,0,17] 0
c[0,0,18] 0
c[0,0,19] 0
c[0,0,20] 0
c[0,0,21] 0
c[0,0,22] 0
c[0,0,23] 0
c[0,0,24] 1
c[0,1,0] 0
c[0,1,1] 0
c[0,1,2] 0
c[0,1,3] 0
c[0,1,4] 0
c[0,1,5] 0
c[0,1,6] 0
c[0,1,7] 0
c[0,1,8] 0
c[0,1,9] 0
c[0,1,10] 0
c[0,1,11] 0
c[0,1,12] 0
c[0,1,13] 0
c[0,1,14] 0
c[0,1,15] 0
c[0,1,16] 0
c[0,1,17] 0
c[0,1,18] 0
c[0,1,19] 0
c[0,1,20] 0
c[0,1,21] 0
c[0,1,22] 0
c[0,1,23] 0
c[0,1,24] 1
c[0,2,0] 0
c[0,2,1] 0
c[0,2,2] 0
c[0,2,3] 0
c[0,2,4] 0
c[0,2,5] 0
c[0,2,6] 0
c[0,2,7] 0
c[0,2,8] 0
c[0,2,9] 0
c[0,2,10] 0
c[0,2,11] 0
c[0,2,12] 0
c[0,2,13] 0
c[0,2,14] 0
c[0,2,15] 0
c[0,2,16] 0
c[0,2,17] 0
c[0,2,18] 0
c[0,2,19] 0
c[0,2,20] 0
c[0,2,21] 0
c[0,2,22] 0
c[0,2,23] 0
c[0,2,24] 1
c[0,3,0] 0
c[0,3,1] 0
c[0,3,2] 0
c[0,3,3] 0
c[0,3,4] 0
c[0,3,5] 0
c[0,3,6] 0
c[0,3,7] 0
c[0,3,8] 0
c[0,3,9] 0
c[0,3,10] 0
c[0,3,11] 0
c[0,3,12] 0
c[0,3,13] 0
c[0,3,14] 0
c[0,3,15] 0
c[0,3,16] 0
c[0,3,17] 0
c[0,3,18] 0
c[0,3,19] 0
c[0,3,20] 0
c[0,3,21] 0
c[0,3,22] 0
c[0,3,23] 0
c[0,3,24] 1
c[1,0,0] 0
c[1,0,1] 0
c[1,0,2] 0
c[1,0,3] 0
c[1,0,4] 0
c[1,0,5] 0
c[1,0,6] 0
c[1,0,7] 0
c[1,0,8] 0
c[1,0,9] 0
c[1,0,10] 0
c[1,0,11] 0
c[1,0,12] 0
c[1,0,13] 0
c[1,0,14] 0
c[1,0,15] 0
c[1,0,16] 0
c[1,0,17] 0
c[1,0,18] 0
c[1,0,19] 0
c[1,0,20] 0
c[1,0,21] 0
c[1,0,22] 0
c[1,0,23] 0
c[1,0,24] 1
c[1,1,0] 0
c[1,1,1] 0
c[1,1,2] 0
c[1,1,3] 0
c[1,1,4] 0
c[1,1,5] 0
c[1,1,6] 0
c[1,1,7] 0
c[1,1,8] 0
c[1,1,9] 0
c[1,1,10] 0
c[1,1,11] 0
c[1,1,12] 0
c[1,1,13] 0
c[1,1,14] 0
c[1,1,15] 0
c[1,1,16] 0
c[1,1,17] 0
c[1,1,18] 0
c[1,1,19] 0
c[1,1,20] 0
c[1,1,21] 0
c[1,1,22] 0
c[1,1,23] 0
c[1,1,24] 1
c[1,2,0] 0
c[1,2,1] 0
c[1,2,2] 0
c[1,2,3] 0
c[1,2,4] 0
c[1,2,5] 0
c[1,2,6] 0
c[1,2,7] 0
c[1,2,8] 0
c[1,2,9] 0
c[1,2,10] 0
c[1,2,11] 0
c[1,2,12] 0
c[1,2,13] 0
c[1,2,14] 0
c[1,2,15] 0
c[1,2,16] 0
c[1,2,17] 0
c[1,2,18] 0
c[1,2,19] 0
c[1,2,20] 0
c[1,2,21] 0
c[1,2,22] 0
c[1,2,23] 0
c[1,2,24] 1
c[1,3,0] 0
c[1,3,1] 0
c[1,3,2] 0
c[1,3,3] 0
c[1,3,4] 0
c[1,3,5] 0
c[1,3,6] 0
c[1,3,7] 0
c[1,3,8] 0
c[1,3,9] 0
c[1,3,10] 0
c[1,3,11] 0
c[1,3,12] 0
c[1,3,13] 0
c[1,3,14] 0
c[1,3,15] 0
c[1,3,16] 0
c[1,3,17] 0
c[1,3,18] 0
c[1,3,19] 0
c[1,3,20] 0
c[1,3,21] 0
c[1,3,22] 0
c[1,3,23] 0
c[1,3,24] 1
c[2,0,0] 0
c[2,0,1] 0
c[2,0,2] 0
c[2,0,3] 0
c[2,0,4] 0
c[2,0,5] 0
c[2,0,6] 0
c[2,0,7] 0
c[2,0,8] 0
c[2,0,9] 0
c[2,0,10] 0
c[2,0,11] 0
c[2,0,12] 0
c[2,0,13] 0
c[2,0,14] 0
c[2,0,15] 0
c[2,0,16] 0
c[2,0,17] 0
c[2,0,18] 0
c[2,0,19] 0
c[2,0,20] 0
c[2,0,21] 0
c[2,0,22] 0
c[2,0,23] 0
c[2,0,24] 1
c[2,1,0] 0
c[2,1,1] 0
c[2,1,2] 0
c[2,1,3] 0
c[2,1,4] 0
c[2,1,5] 0
c[2,1,6] 0
c[2,1,7] 0
c[2,1,8] 0
c[2,1,9] 0
c[2,1,10] 0
c[2,1,11] 0
c[2,1,12] 0
c[2,1,13] 0
c[2,1,14] 0
c[2,1,15] 0
c[2,1,16] 0
c[2,1,17] 0
c[2,1,18] 0
c[2,1,19] 0
c[2,1,20] 0
c[2,1,21] 0
c[2,1,22] 0
c[2,1,23] 0
c[2,1,24] 1
c[2,2,0] 0
c[2,2,1] 0
c[2,2,2] 0
c[2,2,3] 0
c[2,2,4] 0
c[2,2,5] 0
c[2,2,6] 0
c[2,2,7] 0
c[2,2,8] 0
c[2,2,9] 0
c[2,2,10] 0
c[2,2,11] 0
c[2,2,12] 0
c[2,2,13] 0
c[2,2,14] 0
c[2,2,15] 0
c[2,2,16] 0
c[2,2,17] 0
c[2,2,18] 0
c[2,2,19] 0
c[2,2,20] 0
c[2,2,21] 0
c[2,2,22] 0
c[2,2,23] 0
c[2,2,24] 1
c[2,3,0] 0
c[2,3,1] 0
c[2,3,2] 0
c[2,3,3] 0
c[2,3,4] 0
c[2,3,5] 0
c[2,3,6] 0
c[2,3,7] 0
c[2,3,8] 0
c[2,3,9] 0
c[2,3,10] 0
c[2,3,11] 0
c[2,3,12] 0
c[2,3,13] 0
c[2,3,14] 0
c[2,3,15] 0
c[2,3,16] 0
c[2,3,17] 0
c[2,3,18] 0
c[2,3,19] 0
c[2,3,20] 0
c[2,3,21] 0
c[2,3,22] 0
c[2,3,23] 0
c[2,3,24] 1
c[3,0,0] 0
c[3,0,1] 0
c[3,0,2] 0
c[3,0,3] 0
c[3,0,4] 0
c[3,0,5] 0
c[3,0,6] 0
c[3,0,7] 0
c[3,0,8] 0
c[3,0,9] 0
c[3,0,10] 0
c[3,0,11] 0
c[3,0,12] 0
c[3,0,13] 0
c[3,0,14] 0
c[3,0,15] 0
c[3,0,16] 0
c[3,0,17] 0
c[3,0,18] 0
c[3,0,19] 0
c[3,0,20] 0
c[3,0,21] 0
c[3,0,22] 0
c[3,0,23] 0
c[3,0,24] 1
c[3,1,0] 0
c[3,1,1] 0
c[3,1,2] 0
c[3,1,3] 0
c[3,1,4] 0
c[3,1,5] 0
c[3,1,6] 0
c[3,1,7] 0
c[3,1,8] 0
c[3,1,9] 0
c[3,1,10] 0
c[3,1,11] 0
c[3,1,12] 0
c[3,1,13] 0
c[3,1,14] 0
c[3,1,15] 0
c[3,1,16] 0
c[3,1,17] 0
c[3,1,18] 0
c[3,1,19] 0
c[3,1,20] 0
c[3,1,21] 0
c[3,1,22] 0
c[3,1,23] 0
c[3,1,24] 1
c[3,2,0] 0
c[3,2,1] 0
c[3,2,2] 0
c[3,2,3] 0
c[3,2,4] 0
c[3,2,5] 0
c[3,2,6] 0
c[3,2,7] 0
c[3,2,8] 0
c[3,2,9] 0
c[3,2,10] 0
c[3,2,11] 0
c[3,2,12] 0
c[3,2,13] 0
c[3,2,14] 0
c[3,2,15] 0
c[3,2,16] 0
c[3,2,17] 0
c[3,2,18] 0
c[3,2,19] 0
c[3,2,20] 0
c[3,2,21] 0
c[3,2,22] 0
c[3,2,23] 0
c[3,2,24] 1
c[3,3,0] 0
c[3,3,1] 0
c[3,3,2] 0
c[3,3,3] 0
c[3,3,4] 0
c[3,3,5] 0
c[3,3,6] 0
c[3,3,7] 0
c[3,3,8] 0
c[3,3,9] 0
c[3,3,10] 0
c[3,3,11] 0
c[3,3,12] 0
c[3,3,13] 0
c[3,3,14] 0
c[3,3,15] 0
c[3,3,16] 0
c[3,3,17] 0
c[3,3,18] 0
c[3,3,19] 0
c[3,3,20] 0
c[3,3,21] 0
c[3,3,22] 0
c[3,3,23] 0
c[3,3,24] 1
b[0,0,0] 0
b[0,0,1] 0
b[0,0,2] 0
b[0,0,3] 0
b[0,0,4] 0
b[0,0,5] 0
b[0,0,6] 0
b[0,0,7] 0
b[0,0,8] 0
b[0,0,9] 0
b[0,0,10] 0
b[0,0,11] 0
b[0,0,12] 0
b[0,0,13] 0
b[0,1,0] 0
b[0,1,1] 0
b[0,1,2] 0
b[0,1,3] 0
b[0,1,4] 0
b[0,1,5] 0
b[0,1,6] 0
b[0,1,7] 0
b[0,1,8] 0
b[0,1,9] 0
b[0,1,10] 0
b[0,1,11] 0
b[0,1,12] 0
b[0,1,13] 0
b[0,2,0] 0
b[0,2,1] 0
b[0,2,2] 0
b[0,2,3] 0
b[0,2,4] 0
b[0,2,5] 0
b[0,2,6] 0
b[0,2,7] 0
b[0,2,8] 0
b[0,2,9] 0
b[0,2,10] 0
b[0,2,11] 0
b[0,2,12] 0
b[0,2,13] 0
b[0,3,0] 0
b[0,3,1] 0
b[0,3,2] 0
b[0,3,3] 0
b[0,3,4] 0
b[0,3,5] 0
b[0,3,6] 0
b[0,3,7] 0
b[0,3,8] 0
b[0,3,9] 0
b[0,3,10] 0
b[0,3,11] 0
b[0,3,12] 0
b[0,3,13] 0
b[1,0,0] 0
b[1,0,1] 0
b[1,0,2] 0
b[1,0,3] 0
b[1,0,4] 0
b[1,0,5] 0
b[1,0,6] 0
b[1,0,7] 0
b[1,0,8] 0
b[1,0,9] 0
b[1,0,10] 0
b[1,0,11] 0
b[1,0,12] 0
b[1,0,13] 0
b[1,1,0] 0
b[1,1,1] 0
b[1,1,2] 0
b[1,1,3] 0
b[1,1,4] 0
b[1,1,5] 0
b[1,1,6] 0
b[1,1,7] 0
b[1,1,8] 0
b[1,1,9] 0
b[1,1,10] 0
b[1,1,11] 0
b[1,1,12] 0
b[1,1,13] 0
b[1,2,0] 0
b[1,2,1] 0
b[1,2,2] 0
b[1,2,3] 0
b[1,2,4] 0
b[1,2,5] 0
b[1,2,6] 0
b[1,2,7] 0
b[1,2,8] 0
b[1,2,9] 0
b[1,2,10] 0
b[1,2,11] 0
b[1,2,12] 0
b[1,2,13] 0
b[1,3,0] 0
b[1,3,1] 0
b[1,3,2] 0
b[1,3,3] 0
b[1,3,4] 0
b[1,3,5] 0
b[1,3,6] 0
b[1,3,7] 0
b[1,3,8] 0
b[1,3,9] 0
b[1,3,10] 0
b[1,3,11] 0
b[1,3,12] 0
b[1,3,13] 0
b[2,0,0] 0
b[2,0,1] 0
b[2,0,2] 0
b[2,0,3] 0
b[2,0,4] 0
b[2,0,5] 0
b[2,0,6] 0
b[2,0,7] 0
b[2,0,8] 0
b[2,0,9] 0
b[2,0,10] 0
b[2,0,11] 0
b[2,0,12] 0
b[2,0,13] 0
b[2,1,0] 0
b[2,1,1] 0
b[2,1,2] 0
b[2,1,3] 0
b[2,1,4] 0
b[2,1,5] 0
b[2,1,6] 0
b[2,1,7] 0
b[2,1,8] 0
b[2,1,9] 0
b[2,1,10] 0
b[2,1,11] 0
b[2,1,12] 0
b[2,1,13] 0
b[2,2,0] 0
b[2,2,1] 0
b[2,2,2] 0
b[2,2,3] 0
b[2,2,4] 0
b[2,2,5] 0
b[2,2,6] 0
b[2,2,7] 0
b[2,2,8] 0
b[2,2,9] 0
b[2,2,10] 0
b[2,2,11] 0
b[2,2,12] 0
b[2,2,13] 0
b[2,3,0] 0
b[2,3,1] 0
b[2,3,2] 0
b[2,3,3] 0
b[2,3,4] 0
b[2,3,5] 0
b[2,3,6] 0
b[2,3,7] 0
b[2,3,8] 0
b[2,3,9] 0
b[2,3,10] 0
b[2,3,11] 0
b[2,3,12] 0
b[2,3,13] 0
b[3,0,0] 0
b[3,0,1] 0
b[3,0,2] 0
b[3,0,3] 0
b[3,0,4] 0
b[3,0,5] 0
b[3,0,6] 0
b[3,0,7] 0
b[3,0,8] 0
b[3,0,9] 0
b[3,0,10] 0
b[3,0,11] 0
b[3,0,12] 0
b[3,0,13] 0
b[3,1,0] 0
b[3,1,1] 0
b[3,1,2] 0
b[3,1,3] 0
b[3,1,4] 0
b[3,1,5] 0
b[3,1,6] 0
b[3,1,7] 0
b[3,1,8] 0
b[3,1,9] 0
b[3,1,10] 0
b[3,1,11] 0
b[3,1,12] 0
b[3,1,13] 0
b[3,2,0] 0
b[3,2,1] 0
b[3,2,2] 0
b[3,2,3] 0
b[3,2,4] 0
b[3,2,5] 0
b[3,2,6] 0
b[3,2,7] 0
b[3,2,8] 0
b[3,2,9] 0
b[3,2,10] 0
b[3,2,11] 0
b[3,2,12] 0
b[3,2,13] 0
b[3,3,0] 0
b[3,3,1] 0
b[3,3,2] 0
b[3,3,3] 0
b[3,3,4] 0
b[3,3,5] 0
b[3,3,6] 0
b[3,3,7] 0
b[3,3,8] 0
b[3,3,9] 0
b[3,3,10] 0
b[3,3,11] 0
b[3,3,12] 0
b[3,3,13] 0
sp[0,0] 0.25
sp[0,1] 0.25
sp[0,2] 0.25
sp[0,3] 0.25
sp[1,0] 0.25
sp[1,1] 0.25
sp[1,2] 0.25
sp[1,3] 2.4999999999999956e-01
sp[2,0] 0.25
sp[2,1] 0.25
sp[2,2] 0.25
sp[2,3] 2.4999999999999975e-01
sp[3,0] 0.25
sp[3,1] 2.4999999999999956e-01
sp[3,2] 2.4999999999999975e-01
sp[3,3] 0.25
d_plus[0] 4
d_plus[1] 4
d_plus[2] 4
d_plus[3] 4
p[0,0] 24
p[0,1] 24
p[0,2] 24
p[0,3] 24
p[1,0] 24
p[1,1] 24
p[1,2] 24
p[1,3] 24
p[2,0] 24
p[2,1] 24
p[2,2] 24
p[2,3] 24
p[3,0] 24
p[3,1] 24
p[3,2] 24
p[3,3] 24
t[0,0] 0.25
t[0,1] 0.25
t[0,2] 2.4999999999999983e-01
t[0,3] 0.25
t[1,0] 0.25
t[1,1] 0.25
t[1,2] 0.25
t[1,3] 0.25
t[2,0] 0.25
t[2,1] 0.25
t[2,2] 0.25
t[2,3] 0.25
t[3,0] 0.25
t[3,1] 2.4999999999999983e-01
t[3,2] 0.250000000000003
t[3,3] 0.25
h_prime[0,0] 0
h_prime[0,1] 7.5114515857762953e-01
h_prime[0,2] 0
h_prime[0,3] 2.2695638418464248e-01
h_prime[0,4] 0
h_prime[0,5] 0
h_prime[0,6] 5.9424737056636012e-01
h_prime[0,7] 4.2931562160929870e-01
h_prime[0,8] 0
h_prime[0,9] 1.0254291843493308e+00
h_prime[0,10] 0
h_prime[0,11] 8.5803173136274113e-01
h_prime[0,12] 0
h_prime[0,13] 3.4095203378728167e-01
h_prime[0,14] 0
h_prime[0,15] 2.2653415549466014e-02
h_prime[0,16] 2.2426785458128337e-01
h_prime[0,17] 2.5312822664620838e-01
h_prime[0,18] 2.1608509443892757e-01
h_prime[0,19] 1.7163156258860224e-02
h_prime[0,20] 0
h_prime[0,21] 7.8084666629212907e-01
h_prime[0,22] 1.0753293001479550e-01
h_prime[0,23] 0
h_prime[0,24] 3.2189944136937082e-01
h_prime[0,25] 0
h_prime[0,26] 1.5734433265488987e-01
h_prime[0,27] 0
h_prime[0,28] 2.1274928046234584e-01
h_prime[0,29] 1.8674292342110999e-01
h_prime[0,30] 4.9581454315111079e-01
h_prime[0,31] 8.0607440891174431e-01
h_prime[1,0] 0
h_prime[1,1] 7.5114515857762965e-01
h_prime[1,2] 0
h_prime[1,3] 2.2695638418464242e-01
h_prime[1,4] 0
h_prime[1,5] 0
h_prime[1,6] 0.59424737056636
h_prime[1,7] 4.2931562160929876e-01
h_prime[1,8] 0
h_prime[1,9] 1.0254291843493306e+00
h_prime[1,10] 0
h_prime[1,11] 8.5803174234336987e-01
h_prime[1,12] 0
h_prime[1,13] 3.4095203378728173e-01
h_prime[1,14] 0
h_prime[1,15] 2.2653415549466007e-02
h_prime[1,16] 2.2426785458128351e-01
h_prime[1,17] 2.5312822664620849e-01
h_prime[1,18] 2.1608509443892765e-01
h_prime[1,19] 1.7163156258860210e-02
h_prime[1,20] 0
h_prime[1,21] 7.8084666629212929e-01
h_prime[1,22] 1.0753293000159531e-01
h_prime[1,23] 0
h_prime[1,24] 3.2189944136937071e-01
h_prime[1,25] 0
h_prime[1,26] 1.5734433265488987e-01
h_prime[1,27] 0
h_prime[1,28] 2.1274928046234590e-01
h_prime[1,29] 1.8674292342110999e-01
h_prime[1,30] 4.9581454315111084e-01
h_prime[1,31] 8.0607440891174442e-01
h_prime[2,0] 0
h_prime[2,1] 7.5114515857762965e-01
h_prime[2,2] 0
h_prime[2,3] 2.2695638418464253e-01
h_prime[2,4] 0
h_prime[2,5] 0
h_prime[2,6] 0.59424737056636
h_prime[2,7] 4.2931562160929865e-01
h_prime[2,8] 0
h_prime[2,9] 1.0254291843493308e+00
h_prime[2,10] 0
h_prime[2,11] 0.858031742348888
h_prime[2,12] 0
h_prime[2,13] 3.4095203378728189e-01
h_prime[2,14] 0
h_prime[2,15] 2.2653415549466007e-02
h_prime[2,16] 2.2426785458128348e-01
h_prime[2,17] 2.5312822664620832e-01
h_prime[2,18] 2.1608509443892757e-01
h_prime[2,19] 1.7163156258860210e-02
h_prime[2,20] 0
h_prime[2,21] 7.8084666629212918e-01
h_prime[2,22] 1.0753293000159532e-01
h_prime[2,23] 0
h_prime[2,24] 3.2189944136937088e-01
h_prime[2,25] 0
h_prime[2,26] 1.5734433265488987e-01
h_prime[2,27] 0
h_prime[2,28] 2.1274928046234581e-01
h_prime[2,29] 1.8674292342110996e-01
h_prime[2,30] 4.9581454315111084e-01
h_prime[2,31] 8.0607440891174453e-01
h_prime[3,0] 0
h_prime[3,1] 7.5114515857763176e-01
h_prime[3,2] 0
h_prime[3,3] 2.2695638418464323e-01
h_prime[3,4] 0
h_prime[3,5] 0
h_prime[3,6] 5.9424737056636168e-01
h_prime[3,7] 4.2931562160930015e-01
h_prime[3,8] 0
h_prime[3,9] 1.0254291843493335e+00
h_prime[3,10] 0
h_prime[3,11] 8.5803174234337032e-01
h_prime[3,12] 0
h_prime[3,13] 3.4095203378728262e-01
h_prime[3,14] 0
h_prime[3,15] 2.2653415549466076e-02
h_prime[3,16] 2.2426785458128415e-01
h_prime[3,17] 2.5312822664620910e-01
h_prime[3,18] 2.1608509443892823e-01
h_prime[3,19] 1.7163156258860293e-02
h_prime[3,20] 0
h_prime[3,21] 7.8084666629213129e-01
h_prime[3,22] 1.0753293000159531e-01
h_prime[3,23] 0
h_prime[3,24] 3.2189944136937171e-01
h_prime[3,25] 0
h_prime[3,26] 1.5734433265489037e-01
h_prime[3,27] 0
h_prime[3,28] 2.1274928046234642e-01
h_prime[3,29] 1.8674292342111048e-01
h_prime[3,30] 4.9581454315111223e-01
h_prime[3,31] 8.0607440891174686e-01
x_0_0_0_GCN 0
s_0_0_0_GCN 9.8587796092146629e-03
z_0_0_0_GCN 0
x_0_0_1_GCN 0
s_0_0_1_GCN 1.7101232707498618e-01
z_0_0_1_GCN 0
x_0_0_2_GCN 8.1680715084424538e-03
s_0_0_2_GCN 0
z_0_0_2_GCN 1
x_0_0_3_GCN 0
s_0_0_3_GCN 2.3182731121800471e-02
z_0_0_3_GCN 0
x_0_0_4_GCN 3.6823214683679684e-01
s_0_0_4_GCN 0
z_0_0_4_GCN 1
x_0_0_5_GCN 4.2261034250262064e-01
s_0_0_5_GCN 0
z_0_0_5_GCN 1
x_0_0_6_GCN 4.2911167070267403e-01
s_0_0_6_GCN 0
z_0_0_6_GCN 1
x_0_0_7_GCN 0
s_0_0_7_GCN 7.0859882980588862e-01
z_0_0_7_GCN 0
x_0_0_8_GCN 1.2133195996038015e-03
s_0_0_8_GCN 0
z_0_0_8_GCN 1
x_0_0_9_GCN 4.5633423328403655e-01
s_0_0_9_GCN 0
z_0_0_9_GCN 1
x_0_0_10_GCN 2.4390572682024980e-01
s_0_0_10_GCN 0
z_0_0_10_GCN 1
x_0_0_11_GCN 4.3941850960252393e-01
s_0_0_11_GCN 0
z_0_0_11_GCN 1
x_0_0_12_GCN 0.665303476154791
s_0_0_12_GCN 0
z_0_0_12_GCN 1
x_0_0_13_GCN 1.8648171471428693e-01
s_0_0_13_GCN 0
z_0_0_13_GCN 1
x_0_0_14_GCN 0
s_0_0_14_GCN 4.5645149052145673e-01
z_0_0_14_GCN 0
x_0_0_15_GCN 0
s_0_0_15_GCN 3.7495229556227128e-01
z_0_0_15_GCN 0
x_0_0_16_GCN 6.2710978090766445e-01
s_0_0_16_GCN 0
z_0_0_16_GCN 1
x_0_0_17_GCN 4.0374376624818964e-01
s_0_0_17_GCN 0
z_0_0_17_GCN 1
x_0_0_18_GCN 0
s_0_0_18_GCN 7.4670766294001523e-01
z_0_0_18_GCN 0
x_0_0_19_GCN 2.9511317610758203e-02
s_0_0_19_GCN 0
z_0_0_19_GCN 1
x_0_0_20_GCN 1.1928983358668499e-01
s_0_0_20_GCN 0
z_0_0_20_GCN 1
x_0_0_21_GCN 0
s_0_0_21_GCN 0.272259633988158
z_0_0_21_GCN 0
x_0_0_22_GCN 0
s_0_0_22_GCN 1.9598800130186411e-01
z_0_0_22_GCN 0
x_0_0_23_GCN 2.9062816500666977e-01
s_0_0_23_GCN 0
z_0_0_23_GCN 1
x_0_0_24_GCN 0
s_0_0_24_GCN 1.0716721415540809e-02
z_0_0_24_GCN 0
x_0_0_25_GCN 3.1199631094930569e-01
s_0_0_25_GCN 0
z_0_0_25_GCN 1
x_0_0_26_GCN 6.0902852564805876e-03
s_0_0_26_GCN 0
z_0_0_26_GCN 1
x_0_0_27_GCN 4.2025080323221387e-01
s_0_0_27_GCN 0
z_0_0_27_GCN 1
x_0_0_28_GCN 0
s_0_0_28_GCN 3.7977340817453675e-01
z_0_0_28_GCN 0
x_0_0_29_GCN 1.2083373218777127e-01
s_0_0_29_GCN 0
z_0_0_29_GCN 1
x_0_0_30_GCN 0
s_0_0_30_GCN 3.9233878953384221e-01
z_0_0_30_GCN 0
x_0_0_31_GCN 0
s_0_0_31_GCN 3.5628212988378660e-01
z_0_0_31_GCN 0
x_0_1_0_GCN 0
s_0_1_0_GCN 0.00985877960920236
z_0_1_0_GCN 0
x_0_1_1_GCN 0
s_0_1_1_GCN 1.7101232707500330e-01
z_0_1_1_GCN 0
x_0_1_2_GCN 8.1680715084428979e-03
s_0_1_2_GCN 0
z_0_1_2_GCN 1
x_0_1_3_GCN 0
s_0_1_3_GCN 2.3182731121778398e-02
z_0_1_3_GCN 0
x_0_1_4_GCN 3.6823214683681821e-01
s_0_1_4_GCN 0
z_0_1_4_GCN 1
x_0_1_5_GCN 4.2261034250263507e-01
s_0_1_5_GCN 0
z_0_1_5_GCN 1
x_0_1_6_GCN 0.429111670702696
s_0_1_6_GCN 0
z_0_1_6_GCN 1
x_0_1_7_GCN 0
s_0_1_7_GCN 7.0859882980585143e-01
z_0_1_7_GCN 0
x_0_1_8_GCN 1.2133195996299022e-03
s_0_1_8_GCN 0
z_0_1_8_GCN 1
x_0_1_9_GCN 4.5633423328396794e-01
s_0_1_9_GCN 0
z_0_1_9_GCN 1
x_0_1_10_GCN 2.4390572682025202e-01
s_0_1_10_GCN 0
z_0_1_10_GCN 1
x_0_1_11_GCN 4.3941850960252765e-01
s_0_1_11_GCN 0
z_0_1_11_GCN 1
x_0_1_12_GCN 6.6530347615479046e-01
s_0_1_12_GCN 0
z_0_1_12_GCN 1
x_0_1_13_GCN 1.8648171471431832e-01
s_0_1_13_GCN 0
z_0_1_13_GCN 1
x_0_1_14_GCN 0
s_0_1_14_GCN 4.5645149052143186e-01
z_0_1_14_GCN 0
x_0_1_15_GCN 0
s_0_1_15_GCN 3.7495229556225240e-01
z_0_1_15_GCN 0
x_0_1_16_GCN 6.2710978090761671e-01
s_0_1_16_GCN 0
z_0_1_16_GCN 1
x_0_1_17_GCN 4.0374376624818586e-01
s_0_1_17_GCN 0
z_0_1_17_GCN 1
x_0_1_18_GCN 0
s_0_1_18_GCN 7.4670766294002622e-01
z_0_1_18_GCN 0
x_0_1_19_GCN 2.9511317610763088e-02
s_0_1_19_GCN 0
z_0_1_19_GCN 1
x_0_1_20_GCN 1.1928983358668610e-01
s_0_1_20_GCN 0
z_0_1_20_GCN 1
x_0_1_21_GCN 0
s_0_1_21_GCN 2.7225963398814179e-01
z_0_1_21_GCN 0
x_0_1_22_GCN 0
s_0_1_22_GCN 1.9598800130188515e-01
z_0_1_22_GCN 0
x_0_1_23_GCN 2.9062816500667221e-01
s_0_1_23_GCN 0
z_0_1_23_GCN 1
x_0_1_24_GCN 0
s_0_1_24_GCN 1.0716721415543695e-02
z_0_1_24_GCN 0
x_0_1_25_GCN 3.1199631094932562e-01
s_0_1_25_GCN 0
z_0_1_25_GCN 1
x_0_1_26_GCN 6.0902852565272170e-03
s_0_1_26_GCN 0
z_0_1_26_GCN 1
x_0_1_27_GCN 4.2025080323223485e-01
s_0_1_27_GCN 0
z_0_1_27_GCN 1
x_0_1_28_GCN 0
s_0_1_28_GCN 3.7977340817451621e-01
z_0_1_28_GCN 0
x_0_1_29_GCN 1.2083373218778259e-01
s_0_1_29_GCN 0
z_0_1_29_GCN 1
x_0_1_30_GCN 0
s_0_1_30_GCN 3.9233878953382373e-01
z_0_1_30_GCN 0
x_0_1_31_GCN 0
s_0_1_31_GCN 3.5628212988376590e-01
z_0_1_31_GCN 0
x_0_2_0_GCN 0
s_0_2_0_GCN 9.8587796092126645e-03
z_0_2_0_GCN 0
x_0_2_1_GCN 0
s_0_2_1_GCN 1.7101232707508451e-01
z_0_2_1_GCN 0
x_0_2_2_GCN 8.1680715084277988e-03
s_0_2_2_GCN 0
z_0_2_2_GCN 1
x_0_2_3_GCN 0
s_0_2_3_GCN 2.3182731121791145e-02
z_0_2_3_GCN 0
x_0_2_4_GCN 3.6823214683683553e-01
s_0_2_4_GCN 0
z_0_2_4_GCN 1
x_0_2_5_GCN 4.2261034250256957e-01
s_0_2_5_GCN 0
z_0_2_5_GCN 1
x_0_2_6_GCN 0.429111670702793
s_0_2_6_GCN 0
z_0_2_6_GCN 1
x_0_2_7_GCN 0
s_0_2_7_GCN 7.0859882980591327e-01
z_0_2_7_GCN 0
x_0_2_8_GCN 1.2133195996439916e-03
s_0_2_8_GCN 0
z_0_2_8_GCN 1
x_0_2_9_GCN 4.5633423328402212e-01
s_0_2_9_GCN 0
z_0_2_9_GCN 1
x_0_2_10_GCN 2.4390572682024136e-01
s_0_2_10_GCN 0
z_0_2_10_GCN 1
x_0_2_11_GCN 4.3941850960258316e-01
s_0_2_11_GCN 0
z_0_2_11_GCN 1
x_0_2_12_GCN 6.6530347615492158e-01
s_0_2_12_GCN 0
z_0_2_12_GCN 1
x_0_2_13_GCN 1.8648171471441388e-01
s_0_2_13_GCN 0
z_0_2_13_GCN 1
x_0_2_14_GCN 0
s_0_2_14_GCN 4.5645149052152290e-01
z_0_2_14_GCN 0
x_0_2_15_GCN 0
s_0_2_15_GCN 3.7495229556233767e-01
z_0_2_15_GCN 0
x_0_2_16_GCN 6.2710978090772707e-01
s_0_2_16_GCN 0
z_0_2_16_GCN 1
x_0_2_17_GCN 4.0374376624827818e-01
s_0_2_17_GCN 0
z_0_2_17_GCN 1
x_0_2_18_GCN 0
s_0_2_18_GCN 7.4670766294010316e-01
z_0_2_18_GCN 0
x_0_2_19_GCN 2.9511317610750654e-02
s_0_2_19_GCN 0
z_0_2_19_GCN 1
x_0_2_20_GCN 1.1928983358667250e-01
s_0_2_20_GCN 0
z_0_2_20_GCN 1
x_0_2_21_GCN 0
s_0_2_21_GCN 2.7225963398814607e-01
z_0_2_21_GCN 0
x_0_2_22_GCN 0
s_0_2_22_GCN 1.9598800130191546e-01
z_0_2_22_GCN 0
x_0_2_23_GCN 2.9062816500665112e-01
s_0_2_23_GCN 0
z_0_2_23_GCN 1
x_0_2_24_GCN 0
s_0_2_24_GCN 1.0716721415531261e-02
z_0_2_24_GCN 0
x_0_2_25_GCN 3.1199631094939873e-01
s_0_2_25_GCN 0
z_0_2_25_GCN 1
x_0_2_26_GCN 6.0902852564201915e-03
s_0_2_26_GCN 0
z_0_2_26_GCN 1
x_0_2_27_GCN 4.2025080323220765e-01
s_0_2_27_GCN 0
z_0_2_27_GCN 1
x_0_2_28_GCN 0
s_0_2_28_GCN 0.379773408174531
z_0_2_28_GCN 0
x_0_2_29_GCN 1.2083373218776550e-01
s_0_2_29_GCN 0
z_0_2_29_GCN 1
x_0_2_30_GCN 0
s_0_2_30_GCN 3.9233878953388934e-01
z_0_2_30_GCN 0
x_0_2_31_GCN 0
s_0_2_31_GCN 3.5628212988385316e-01
z_0_2_31_GCN 0
x_0_3_0_GCN 0
s_0_3_0_GCN 9.8587796092011459e-03
z_0_3_0_GCN 0
x_0_3_1_GCN 0
s_0_3_1_GCN 1.7101232707500152e-01
z_0_3_1_GCN 0
x_0_3_2_GCN 8.1680715084266886e-03
s_0_3_2_GCN 0
z_0_3_2_GCN 1
x_0_3_3_GCN 0
s_0_3_3_GCN 2.3182731121778082e-02
z_0_3_3_GCN 0
x_0_3_4_GCN 3.6823214683680772e-01
s_0_3_4_GCN 0
z_0_3_4_GCN 1
x_0_3_5_GCN 4.2261034250260343e-01
s_0_3_5_GCN 0
z_0_3_5_GCN 1
x_0_3_6_GCN 4.2911167070272110e-01
s_0_3_6_GCN 0
z_0_3_6_GCN 1
x_0_3_7_GCN 0
s_0_3_7_GCN 7.0859882980582234e-01
z_0_3_7_GCN 0
x_0_3_8_GCN 1.2133195996424373e-03
s_0_3_8_GCN 0
z_0_3_8_GCN 1
x_0_3_9_GCN 4.5633423328401435e-01
s_0_3_9_GCN 0
z_0_3_9_GCN 1
x_0_3_10_GCN 2.4390572682023787e-01
s_0_3_10_GCN 0
z_0_3_10_GCN 1
x_0_3_11_GCN 4.3941850960256984e-01
s_0_3_11_GCN 0
z_0_3_11_GCN 1
x_0_3_12_GCN 6.6530347615483654e-01
s_0_3_12_GCN 0
z_0_3_12_GCN 1
x_0_3_13_GCN 1.8648171471428943e-01
s_0_3_13_GCN 0
z_0_3_13_GCN 1
x_0_3_14_GCN 0
s_0_3_14_GCN 4.5645149052143136e-01
z_0_3_14_GCN 0
x_0_3_15_GCN 0
s_0_3_15_GCN 3.7495229556225140e-01
z_0_3_15_GCN 0
x_0_3_16_GCN 6.2710978090765457e-01
s_0_3_16_GCN 0
z_0_3_16_GCN 1
x_0_3_17_GCN 4.0374376624823932e-01
s_0_3_17_GCN 0
z_0_3_17_GCN 1
x_0_3_18_GCN 0
s_0_3_18_GCN 7.4670766294002566e-01
z_0_3_18_GCN 0
x_0_3_19_GCN 2.9511317610747323e-02
s_0_3_19_GCN 0
z_0_3_19_GCN 1
x_0_3_20_GCN 1.1928983358666811e-01
s_0_3_20_GCN 0
z_0_3_20_GCN 1
x_0_3_21_GCN 0
s_0_3_21_GCN 2.7225963398814140e-01
z_0_3_21_GCN 0
x_0_3_22_GCN 0
s_0_3_22_GCN 1.9598800130188510e-01
z_0_3_22_GCN 0
x_0_3_23_GCN 2.9062816500664590e-01
s_0_3_23_GCN 0
z_0_3_23_GCN 1
x_0_3_24_GCN 0
s_0_3_24_GCN 1.0716721415517893e-02
z_0_3_24_GCN 0
x_0_3_25_GCN 3.1199631094929625e-01
s_0_3_25_GCN 0
z_0_3_25_GCN 1
x_0_3_26_GCN 6.0902852565141163e-03
s_0_3_26_GCN 0
z_0_3_26_GCN 1
x_0_3_27_GCN 4.2025080323220410e-01
s_0_3_27_GCN 0
z_0_3_27_GCN 1
x_0_3_28_GCN 0
s_0_3_28_GCN 3.7977340817451638e-01
z_0_3_28_GCN 0
x_0_3_29_GCN 1.2083373218774884e-01
s_0_3_29_GCN 0
z_0_3_29_GCN 1
x_0_3_30_GCN 0
s_0_3_30_GCN 3.9233878953382290e-01
z_0_3_30_GCN 0
x_0_3_31_GCN 0
s_0_3_31_GCN 3.5628212988377328e-01
z_0_3_31_GCN 0
x_1_0_0_GCN 0
s_1_0_0_GCN 1.8594416205038491e-01
z_1_0_0_GCN 0
x_1_0_1_GCN 2.9477385658164773e-01
s_1_0_1_GCN 0
z_1_0_1_GCN 1
x_1_0_2_GCN 0
s_1_0_2_GCN 6.2818360442669072e-02
z_1_0_2_GCN 0
x_1_0_3_GCN 0
s_1_0_3_GCN 1.8658928276874964e-01
z_1_0_3_GCN 0
x_1_0_4_GCN 5.2688985699936086e-01
s_1_0_4_GCN 0
z_1_0_4_GCN 1
x_1_0_5_GCN 1.9185799298285744e-01
s_1_0_5_GCN 0
z_1_0_5_GCN 1
x_1_0_6_GCN 0
s_1_0_6_GCN 7.5959627486389092e-01
z_1_0_6_GCN 0
x_1_0_7_GCN 0
s_1_0_7_GCN 6.3011990475501534e-01
z_1_0_7_GCN 0
x_1_0_8_GCN 0
s_1_0_8_GCN 4.1227106942515562e-01
z_1_0_8_GCN 0
x_1_0_9_GCN 0
s_1_0_9_GCN 2.5003196205189859e-01
z_1_0_9_GCN 0
x_1_0_10_GCN 8.0707594004894789e-01
s_1_0_10_GCN 0
z_1_0_10_GCN 1
x_1_0_11_GCN 6.7438638625187242e-01
s_1_0_11_GCN 0
z_1_0_11_GCN 1
x_1_0_12_GCN 2.2994108209207262e-01
s_1_0_12_GCN 0
z_1_0_12_GCN 1
x_1_0_13_GCN 0
s_1_0_13_GCN 1.9009331290576023e-01
z_1_0_13_GCN 0
x_1_0_14_GCN 1.0486009558501512e-01
s_1_0_14_GCN 0
z_1_0_14_GCN 1
x_1_0_15_GCN 0
s_1_0_15_GCN 5.3084885543286131e-01
z_1_0_15_GCN 0
x_1_0_16_GCN 3.2980091145369705e-01
s_1_0_16_GCN 0
z_1_0_16_GCN 1
x_1_0_17_GCN 1.4965557027678911e-01
s_1_0_17_GCN 0
z_1_0_17_GCN 1
x_1_0_18_GCN 0
s_1_0_18_GCN 1.2727990752656460e-01
z_1_0_18_GCN 0
x_1_0_19_GCN 3.6879240420409815e-01
s_1_0_19_GCN 0
z_1_0_19_GCN 1
x_1_0_20_GCN 0
s_1_0_20_GCN 5.5396123559614187e-02
z_1_0_20_GCN 0
x_1_0_21_GCN 6.5917360584562623e-01
s_1_0_21_GCN 0
z_1_0_21_GCN 1
x_1_0_22_GCN 3.2602887990587213e-02
s_1_0_22_GCN 0
z_1_0_22_GCN 1
x_1_0_23_GCN 0
s_1_0_23_GCN 4.3906524510202430e-03
z_1_0_23_GCN 0
x_1_0_24_GCN 4.5782114772738891e-01
s_1_0_24_GCN 0
z_1_0_24_GCN 1
x_1_0_25_GCN 1.6112649765996273e-01
s_1_0_25_GCN 0
z_1_0_25_GCN 1
x_1_0_26_GCN 0
s_1_0_26_GCN 0.0734838753989489
z_1_0_26_GCN 0
x_1_0_27_GCN 0
s_1_0_27_GCN 4.3642340321824563e-01
z_1_0_27_GCN 0
x_1_0_28_GCN 7.2989654011435223e-01
s_1_0_28_GCN 0
z_1_0_28_GCN 1
x_1_0_29_GCN 1.2250113524536664e-02
s_1_0_29_GCN 0
z_1_0_29_GCN 1
x_1_0_30_GCN 4.4411868565038271e-01
s_1_0_30_GCN 0
z_1_0_30_GCN 1
x_1_0_31_GCN 0
s_1_0_31_GCN 2.8696032081564377e-01
z_1_0_31_GCN 0
x_1_1_0_GCN 0
s_1_1_0_GCN 1.8594416205037570e-01
z_1_1_0_GCN 0
x_1_1_1_GCN 2.9477382767884047e-01
s_1_1_1_GCN 0
z_1_1_1_GCN 1
x_1_1_2_GCN 0
s_1_1_2_GCN 6.2818360442669571e-02
z_1_1_2_GCN 0
x_1_1_3_GCN 0
s_1_1_3_GCN 0.186589282768747
z_1_1_3_GCN 0
x_1_1_4_GCN 5.2688988094457312e-01
s_1_1_4_GCN 0
z_1_1_4_GCN 1
x_1_1_5_GCN 1.9185801843573519e-01
s_1_1_5_GCN 0
z_1_1_5_GCN 1
x_1_1_6_GCN 0
s_1_1_6_GCN 7.5959627486388981e-01
z_1_1_6_GCN 0
x_1_1_7_GCN 0
s_1_1_7_GCN 6.3011990475501112e-01
z_1_1_7_GCN 0
x_1_1_8_GCN 0
s_1_1_8_GCN 4.1227106942515390e-01
z_1_1_8_GCN 0
x_1_1_9_GCN 0
s_1_1_9_GCN 2.5003196205189643e-01
z_1_1_9_GCN 0
x_1_1_10_GCN 8.0707594004892580e-01
s_1_1_10_GCN 0
z_1_1_10_GCN 1
x_1_1_11_GCN 6.7438641329654547e-01
s_1_1_11_GCN 0
z_1_1_11_GCN 1
x_1_1_12_GCN 2.2994108822260367e-01
s_1_1_12_GCN 0
z_1_1_12_GCN 1
x_1_1_13_GCN 0
s_1_1_13_GCN 1.9009331290575984e-01
z_1_1_13_GCN 0
x_1_1_14_GCN 1.0486011967902309e-01
s_1_1_14_GCN 0
z_1_1_14_GCN 1
x_1_1_15_GCN 0
s_1_1_15_GCN 5.3084885543286320e-01
z_1_1_15_GCN 0
x_1_1_16_GCN 3.2980088830934040e-01
s_1_1_16_GCN 0
z_1_1_16_GCN 1
x_1_1_17_GCN 1.4965547565642295e-01
s_1_1_17_GCN 0
z_1_1_17_GCN 1
x_1_1_18_GCN 0
s_1_1_18_GCN 1.2727990752656684e-01
z_1_1_18_GCN 0
x_1_1_19_GCN 3.6879231915507521e-01
s_1_1_19_GCN 0
z_1_1_19_GCN 1
x_1_1_20_GCN 0
s_1_1_20_GCN 5.5396123559613666e-02
z_1_1_20_GCN 0
x_1_1_21_GCN 6.5917354147413820e-01
s_1_1_21_GCN 0
z_1_1_21_GCN 1
x_1_1_22_GCN 3.2602903241656031e-02
s_1_1_22_GCN 0
z_1_1_22_GCN 1
x_1_1_23_GCN 0
s_1_1_23_GCN 4.3906524510204693e-03
z_1_1_23_GCN 0
x_1_1_24_GCN 4.5782114941911684e-01
s_1_1_24_GCN 0
z_1_1_24_GCN 1
x_1_1_25_GCN 1.6112649918362787e-01
s_1_1_25_GCN 0
z_1_1_25_GCN 1
x_1_1_26_GCN 0
s_1_1_26_GCN 7.3483875398948115e-02
z_1_1_26_GCN 0
x_1_1_27_GCN 0
s_1_1_27_GCN 4.3642340321824635e-01
z_1_1_27_GCN 0
x_1_1_28_GCN 7.2989644499999140e-01
s_1_1_28_GCN 0
z_1_1_28_GCN 1
x_1_1_29_GCN 1.2250113524511106e-02
s_1_1_29_GCN 0
z_1_1_29_GCN 1
x_1_1_30_GCN 0.444118593237545
s_1_1_30_GCN 0
z_1_1_30_GCN 1
x_1_1_31_GCN 0
s_1_1_31_GCN 2.8696032081564521e-01
z_1_1_31_GCN 0
x_1_2_0_GCN 0
s_1_2_0_GCN 1.8594416205037528e-01
z_1_2_0_GCN 0
x_1_2_1_GCN 2.9477382767916649e-01
s_1_2_1_GCN 0
z_1_2_1_GCN 1
x_1_2_2_GCN 0
s_1_2_2_GCN 6.2818360442669988e-02
z_1_2_2_GCN 0
x_1_2_3_GCN 0
s_1_2_3_GCN 1.8658928276874726e-01
z_1_2_3_GCN 0
x_1_2_4_GCN 5.2688985699997959e-01
s_1_2_4_GCN 0
z_1_2_4_GCN 1
x_1_2_5_GCN 1.9185810201581691e-01
s_1_2_5_GCN 0
z_1_2_5_GCN 1
x_1_2_6_GCN 0
s_1_2_6_GCN 7.5959627486389059e-01
z_1_2_6_GCN 0
x_1_2_7_GCN 0
s_1_2_7_GCN 6.3011990475501178e-01
z_1_2_7_GCN 0
x_1_2_8_GCN 0
s_1_2_8_GCN 4.1227106942515446e-01
z_1_2_8_GCN 0
x_1_2_9_GCN 0
s_1_2_9_GCN 2.5003196205189687e-01
z_1_2_9_GCN 0
x_1_2_10_GCN 8.0707594004895555e-01
s_1_2_10_GCN 0
z_1_2_10_GCN 1
x_1_2_11_GCN 6.7438638625165326e-01
s_1_2_11_GCN 0
z_1_2_11_GCN 1
x_1_2_12_GCN 2.2994108783087264e-01
s_1_2_12_GCN 0
z_1_2_12_GCN 1
x_1_2_13_GCN 0
s_1_2_13_GCN 1.9009331290576023e-01
z_1_2_13_GCN 0
x_1_2_14_GCN 1.0486011967904650e-01
s_1_2_14_GCN 0
z_1_2_14_GCN 1
x_1_2_15_GCN 0
s_1_2_15_GCN 5.3084885543285554e-01
z_1_2_15_GCN 0
x_1_2_16_GCN 3.2980082022747020e-01
s_1_2_16_GCN 0
z_1_2_16_GCN 1
x_1_2_17_GCN 0.149655474344383
s_1_2_17_GCN 0
z_1_2_17_GCN 1
x_1_2_18_GCN 0
s_1_2_18_GCN 1.2727990752656704e-01
z_1_2_18_GCN 0
x_1_2_19_GCN 3.6879231527899814e-01
s_1_2_19_GCN 0
z_1_2_19_GCN 1
x_1_2_20_GCN 0
s_1_2_20_GCN 0.0553961235596138
z_1_2_20_GCN 0
x_1_2_21_GCN 6.5917361693314069e-01
s_1_2_21_GCN 0
z_1_2_21_GCN 1
x_1_2_22_GCN 3.2602958600243884e-02
s_1_2_22_GCN 0
z_1_2_22_GCN 1
x_1_2_23_GCN 0
s_1_2_23_GCN 4.3906524510208128e-03
z_1_2_23_GCN 0
x_1_2_24_GCN 4.5782114772795057e-01
s_1_2_24_GCN 0
z_1_2_24_GCN 1
x_1_2_25_GCN 1.6112649189891493e-01
s_1_2_25_GCN 0
z_1_2_25_GCN 1
x_1_2_26_GCN 0
s_1_2_26_GCN 7.3483875398947712e-02
z_1_2_26_GCN 0
x_1_2_27_GCN 0
s_1_2_27_GCN 4.3642340321824663e-01
z_1_2_27_GCN 0
x_1_2_28_GCN 7.2989653168029933e-01
s_1_2_28_GCN 0
z_1_2_28_GCN 1
x_1_2_29_GCN 1.2250109857262870e-02
s_1_2_29_GCN 0
z_1_2_29_GCN 1
x_1_2_30_GCN 4.4411868565100115e-01
s_1_2_30_GCN 0
z_1_2_30_GCN 1
x_1_2_31_GCN 0
s_1_2_31_GCN 2.8696032081564538e-01
z_1_2_31_GCN 0
x_1_3_0_GCN 0
s_1_3_0_GCN 1.8594416205037584e-01
z_1_3_0_GCN 0
x_1_3_1_GCN 2.9477382767888055e-01
s_1_3_1_GCN 0
z_1_3_1_GCN 1
x_1_3_2_GCN 0
s_1_3_2_GCN 6.2818360442670917e-02
z_1_3_2_GCN 0
x_1_3_3_GCN 0
s_1_3_3_GCN 1.8658928276874742e-01
z_1_3_3_GCN 0
x_1_3_4_GCN 5.2688985699917934e-01
s_1_3_4_GCN 0
z_1_3_4_GCN 1
x_1_3_5_GCN 1.9185810201581144e-01
s_1_3_5_GCN 0
z_1_3_5_GCN 1
x_1_3_6_GCN 0
s_1_3_6_GCN 7.5959627486389236e-01
z_1_3_6_GCN 0
x_1_3_7_GCN 0
s_1_3_7_GCN 6.3011990475501434e-01
z_1_3_7_GCN 0
x_1_3_8_GCN 0
s_1_3_8_GCN 4.1227106942515590e-01
z_1_3_8_GCN 0
x_1_3_9_GCN 0
s_1_3_9_GCN 2.5003196205189732e-01
z_1_3_9_GCN 0
x_1_3_10_GCN 8.0707594004893468e-01
s_1_3_10_GCN 0
z_1_3_10_GCN 1
x_1_3_11_GCN 6.7438641378985820e-01
s_1_3_11_GCN 0
z_1_3_11_GCN 1
x_1_3_12_GCN 2.2994108209227820e-01
s_1_3_12_GCN 0
z_1_3_12_GCN 1
x_1_3_13_GCN 0
s_1_3_13_GCN 1.9009331290575990e-01
z_1_3_13_GCN 0
x_1_3_14_GCN 1.0486011967902173e-01
s_1_3_14_GCN 0
z_1_3_14_GCN 1
x_1_3_15_GCN 0
s_1_3_15_GCN 5.3084885543286608e-01
z_1_3_15_GCN 0
x_1_3_16_GCN 3.2980089025213383e-01
s_1_3_16_GCN 0
z_1_3_16_GCN 1
x_1_3_17_GCN 1.4965554340742862e-01
s_1_3_17_GCN 0
z_1_3_17_GCN 1
x_1_3_18_GCN 0
s_1_3_18_GCN 1.2727990752656781e-01
z_1_3_18_GCN 0
x_1_3_19_GCN 3.6879231527845080e-01
s_1_3_19_GCN 0
z_1_3_19_GCN 1
x_1_3_20_GCN 0
s_1_3_20_GCN 5.5396123559613285e-02
z_1_3_20_GCN 0
x_1_3_21_GCN 6.5917360584563389e-01
s_1_3_21_GCN 0
z_1_3_21_GCN 1
x_1_3_22_GCN 3.2602905146236739e-02
s_1_3_22_GCN 0
z_1_3_22_GCN 1
x_1_3_23_GCN 0
s_1_3_23_GCN 4.3906524510207955e-03
z_1_3_23_GCN 0
x_1_3_24_GCN 4.5782114772732224e-01
s_1_3_24_GCN 0
z_1_3_24_GCN 1
x_1_3_25_GCN 1.6112649765988871e-01
s_1_3_25_GCN 0
z_1_3_25_GCN 1
x_1_3_26_GCN 0
s_1_3_26_GCN 7.3483875398948725e-02
z_1_3_26_GCN 0
x_1_3_27_GCN 0
s_1_3_27_GCN 4.3642340321824824e-01
z_1_3_27_GCN 0
x_1_3_28_GCN 7.2989644591739045e-01
s_1_3_28_GCN 0
z_1_3_28_GCN 1
x_1_3_29_GCN 1.2250097498920455e-02
s_1_3_29_GCN 0
z_1_3_29_GCN 1
x_1_3_30_GCN 4.4411868565037871e-01
s_1_3_30_GCN 0
z_1_3_30_GCN 1
x_1_3_31_GCN 0
s_1_3_31_GCN 0.286960320815646
z_1_3_31_GCN 0
x_2_0_0_GCN 0
s_2_0_0_GCN 3.4184338779170254e-01
z_2_0_0_GCN 0
x_2_0_1_GCN 0
s_2_0_1_GCN 0
z_2_0_1_GCN 1
x_2_0_2_GCN 0
s_2_0_2_GCN 2.8733990821477540e-01
z_2_0_2_GCN 0
x_2_0_3_GCN 0
s_2_0_3_GCN 0
z_2_0_3_GCN 1
x_2_0_4_GCN 0
s_2_0_4_GCN 1.4340869547255183e-01
z_2_0_4_GCN 0
x_2_0_5_GCN 0
s_2_0_5_GCN 2.4854145078113163e-01
z_2_0_5_GCN 0
x_2_0_6_GCN 0
s_2_0_6_GCN 0
z_2_0_6_GCN 1
x_2_0_7_GCN 0
s_2_0_7_GCN 0
z_2_0_7_GCN 1
x_2_0_8_GCN 0
s_2_0_8_GCN 8.2701196229788587e-01
z_2_0_8_GCN 0
x_2_0_9_GCN 0
s_2_0_9_GCN 0
z_2_0_9_GCN 1
x_2_0_10_GCN 0
s_2_0_10_GCN 5.7202119353990366e-01
z_2_0_10_GCN 0
x_2_0_11_GCN 0
s_2_0_11_GCN 0
z_2_0_11_GCN 1
x_2_0_12_GCN 0
s_2_0_12_GCN 6.3893120643013479e-01
z_2_0_12_GCN 0
x_2_0_13_GCN 0
s_2_0_13_GCN 0
z_2_0_13_GCN 1
x_2_0_14_GCN 0
s_2_0_14_GCN 2.4839196755700033e-01
z_2_0_14_GCN 0
x_2_0_15_GCN 0
s_2_0_15_GCN 0
z_2_0_15_GCN 1
x_2_0_16_GCN 0
s_2_0_16_GCN 0
z_2_0_16_GCN 1
x_2_0_17_GCN 0
s_2_0_17_GCN 0
z_2_0_17_GCN 1
x_2_0_18_GCN 0
s_2_0_18_GCN 0
z_2_0_18_GCN 1
x_2_0_19_GCN 0
s_2_0_19_GCN 0
z_2_0_19_GCN 1
x_2_0_20_GCN 0
s_2_0_20_GCN 5.6548030228815660e-02
z_2_0_20_GCN 0
x_2_0_21_GCN 0
s_2_0_21_GCN 0
z_2_0_21_GCN 1
x_2_0_22_GCN 0
s_2_0_22_GCN 0
z_2_0_22_GCN 1
x_2_0_23_GCN 0
s_2_0_23_GCN 4.4303038492587110e-01
z_2_0_23_GCN 0
x_2_0_24_GCN 0
s_2_0_24_GCN 0
z_2_0_24_GCN 1
x_2_0_25_GCN 0
s_2_0_25_GCN 4.0309819929225510e-01
z_2_0_25_GCN 0
x_2_0_26_GCN 0
s_2_0_26_GCN 0
z_2_0_26_GCN 1
x_2_0_27_GCN 0
s_2_0_27_GCN 5.6699825406016946e-01
z_2_0_27_GCN 0
x_2_0_28_GCN 0
s_2_0_28_GCN 0
z_2_0_28_GCN 1
x_2_0_29_GCN 0
s_2_0_29_GCN 0
z_2_0_29_GCN 1
x_2_0_30_GCN 0
s_2_0_30_GCN 0
z_2_0_30_GCN 1
x_2_0_31_GCN 0
s_2_0_31_GCN 0
z_2_0_31_GCN 1
x_2_1_0_GCN 0
s_2_1_0_GCN 3.4184338779170259e-01
z_2_1_0_GCN 0
x_2_1_1_GCN 0
s_2_1_1_GCN 0
z_2_1_1_GCN 1
x_2_1_2_GCN 0
s_2_1_2_GCN 2.8733990821477562e-01
z_2_1_2_GCN 0
x_2_1_3_GCN 0
s_2_1_3_GCN 0
z_2_1_3_GCN 1
x_2_1_4_GCN 0
s_2_1_4_GCN 1.4340869547255186e-01
z_2_1_4_GCN 0
x_2_1_5_GCN 0
s_2_1_5_GCN 2.4854145078113155e-01
z_2_1_5_GCN 0
x_2_1_6_GCN 0
s_2_1_6_GCN 0
z_2_1_6_GCN 1
x_2_1_7_GCN 0
s_2_1_7_GCN 0
z_2_1_7_GCN 1
x_2_1_8_GCN 0
s_2_1_8_GCN 8.2701196229788609e-01
z_2_1_8_GCN 0
x_2_1_9_GCN 0
s_2_1_9_GCN 0
z_2_1_9_GCN 1
x_2_1_10_GCN 0
s_2_1_10_GCN 5.7202119353990344e-01
z_2_1_10_GCN 0
x_2_1_11_GCN 0
s_2_1_11_GCN 0
z_2_1_11_GCN 1
x_2_1_12_GCN 0
s_2_1_12_GCN 6.3893120643013490e-01
z_2_1_12_GCN 0
x_2_1_13_GCN 0
s_2_1_13_GCN 0
z_2_1_13_GCN 1
x_2_1_14_GCN 0
s_2_1_14_GCN 2.4839196755700030e-01
z_2_1_14_GCN 0
x_2_1_15_GCN 0
s_2_1_15_GCN 0
z_2_1_15_GCN 1
x_2_1_16_GCN 0
s_2_1_16_GCN 0
z_2_1_16_GCN 1
x_2_1_17_GCN 0
s_2_1_17_GCN 0
z_2_1_17_GCN 1
x_2_1_18_GCN 0
s_2_1_18_GCN 0
z_2_1_18_GCN 1
x_2_1_19_GCN 0
s_2_1_19_GCN 0
z_2_1_19_GCN 1
x_2_1_20_GCN 0
s_2_1_20_GCN 5.6548030228815695e-02
z_2_1_20_GCN 0
x_2_1_21_GCN 0
s_2_1_21_GCN 0
z_2_1_21_GCN 1
x_2_1_22_GCN 0
s_2_1_22_GCN 0
z_2_1_22_GCN 1
x_2_1_23_GCN 0
s_2_1_23_GCN 4.4303038492587105e-01
z_2_1_23_GCN 0
x_2_1_24_GCN 0
s_2_1_24_GCN 0
z_2_1_24_GCN 1
x_2_1_25_GCN 0
s_2_1_25_GCN 4.0309819929225515e-01
z_2_1_25_GCN 0
x_2_1_26_GCN 0
s_2_1_26_GCN 0
z_2_1_26_GCN 1
x_2_1_27_GCN 0
s_2_1_27_GCN 5.6699825406016957e-01
z_2_1_27_GCN 0
x_2_1_28_GCN 0
s_2_1_28_GCN 0
z_2_1_28_GCN 1
x_2_1_29_GCN 0
s_2_1_29_GCN 0
z_2_1_29_GCN 1
x_2_1_30_GCN 0
s_2_1_30_GCN 0
z_2_1_30_GCN 1
x_2_1_31_GCN 0
s_2_1_31_GCN 0
z_2_1_31_GCN 1
x_2_2_0_GCN 0
s_2_2_0_GCN 3.4184338779170265e-01
z_2_2_0_GCN 0
x_2_2_1_GCN 0
s_2_2_1_GCN 0
z_2_2_1_GCN 1
x_2_2_2_GCN 0
s_2_2_2_GCN 2.8733990821477545e-01
z_2_2_2_GCN 0
x_2_2_3_GCN 0
s_2_2_3_GCN 0
z_2_2_3_GCN 1
x_2_2_4_GCN 0
s_2_2_4_GCN 1.4340869547255192e-01
z_2_2_4_GCN 0
x_2_2_5_GCN 0
s_2_2_5_GCN 2.4854145078113168e-01
z_2_2_5_GCN 0
x_2_2_6_GCN 0
s_2_2_6_GCN 0
z_2_2_6_GCN 1
x_2_2_7_GCN 0
s_2_2_7_GCN 0
z_2_2_7_GCN 1
x_2_2_8_GCN 0
s_2_2_8_GCN 8.2701196229788621e-01
z_2_2_8_GCN 0
x_2_2_9_GCN 0
s_2_2_9_GCN 0
z_2_2_9_GCN 1
x_2_2_10_GCN 0
s_2_2_10_GCN 5.7202119353990366e-01
z_2_2_10_GCN 0
x_2_2_11_GCN 0
s_2_2_11_GCN 0
z_2_2_11_GCN 1
x_2_2_12_GCN 0
s_2_2_12_GCN 6.3893120643013490e-01
z_2_2_12_GCN 0
x_2_2_13_GCN 0
s_2_2_13_GCN 0
z_2_2_13_GCN 1
x_2_2_14_GCN 0
s_2_2_14_GCN 2.4839196755700030e-01
z_2_2_14_GCN 0
x_2_2_15_GCN 0
s_2_2_15_GCN 0
z_2_2_15_GCN 1
x_2_2_16_GCN 0
s_2_2_16_GCN 0
z_2_2_16_GCN 1
x_2_2_17_GCN 0
s_2_2_17_GCN 0
z_2_2_17_GCN 1
x_2_2_18_GCN 0
s_2_2_18_GCN 0
z_2_2_18_GCN 1
x_2_2_19_GCN 0
s_2_2_19_GCN 0
z_2_2_19_GCN 1
x_2_2_20_GCN 0
s_2_2_20_GCN 5.6548030228815688e-02
z_2_2_20_GCN 0
x_2_2_21_GCN 0
s_2_2_21_GCN 0
z_2_2_21_GCN 1
x_2_2_22_GCN 0
s_2_2_22_GCN 0
z_2_2_22_GCN 1
x_2_2_23_GCN 0
s_2_2_23_GCN 4.4303038492587116e-01
z_2_2_23_GCN 0
x_2_2_24_GCN 0
s_2_2_24_GCN 0
z_2_2_24_GCN 1
x_2_2_25_GCN 0
s_2_2_25_GCN 4.0309819929225521e-01
z_2_2_25_GCN 0
x_2_2_26_GCN 0
s_2_2_26_GCN 0
z_2_2_26_GCN 1
x_2_2_27_GCN 0
s_2_2_27_GCN 5.6699825406016957e-01
z_2_2_27_GCN 0
x_2_2_28_GCN 0
s_2_2_28_GCN 0
z_2_2_28_GCN 1
x_2_2_29_GCN 0
s_2_2_29_GCN 0
z_2_2_29_GCN 1
x_2_2_30_GCN 0
s_2_2_30_GCN 0
z_2_2_30_GCN 1
x_2_2_31_GCN 0
s_2_2_31_GCN 0
z_2_2_31_GCN 1
x_2_3_0_GCN 0
s_2_3_0_GCN 3.4184338779170353e-01
z_2_3_0_GCN 0
x_2_3_1_GCN 0
s_2_3_1_GCN 0
z_2_3_1_GCN 1
x_2_3_2_GCN 0
s_2_3_2_GCN 2.8733990821477629e-01
z_2_3_2_GCN 0
x_2_3_3_GCN 0
s_2_3_3_GCN 0
z_2_3_3_GCN 1
x_2_3_4_GCN 0
s_2_3_4_GCN 1.4340869547255231e-01
z_2_3_4_GCN 0
x_2_3_5_GCN 0
s_2_3_5_GCN 2.4854145078113238e-01
z_2_3_5_GCN 0
x_2_3_6_GCN 0
s_2_3_6_GCN 0
z_2_3_6_GCN 1
x_2_3_7_GCN 0
s_2_3_7_GCN 0
z_2_3_7_GCN 1
x_2_3_8_GCN 0
s_2_3_8_GCN 8.2701196229788865e-01
z_2_3_8_GCN 0
x_2_3_9_GCN 0
s_2_3_9_GCN 0
z_2_3_9_GCN 1
x_2_3_10_GCN 0
s_2_3_10_GCN 5.7202119353990521e-01
z_2_3_10_GCN 0
x_2_3_11_GCN 0
s_2_3_11_GCN 0
z_2_3_11_GCN 1
x_2_3_12_GCN 0
s_2_3_12_GCN 6.3893120643013668e-01
z_2_3_12_GCN 0
x_2_3_13_GCN 0
s_2_3_13_GCN 0
z_2_3_13_GCN 1
x_2_3_14_GCN 0
s_2_3_14_GCN 0.248391967557001
z_2_3_14_GCN 0
x_2_3_15_GCN 0
s_2_3_15_GCN 0
z_2_3_15_GCN 1
x_2_3_16_GCN 0
s_2_3_16_GCN 0
z_2_3_16_GCN 1
x_2_3_17_GCN 0
s_2_3_17_GCN 0
z_2_3_17_GCN 1
x_2_3_18_GCN 0
s_2_3_18_GCN 0
z_2_3_18_GCN 1
x_2_3_19_GCN 0
s_2_3_19_GCN 0
z_2_3_19_GCN 1
x_2_3_20_GCN 0
s_2_3_20_GCN 5.6548030228815882e-02
z_2_3_20_GCN 0
x_2_3_21_GCN 0
s_2_3_21_GCN 0
z_2_3_21_GCN 1
x_2_3_22_GCN 0
s_2_3_22_GCN 0
z_2_3_22_GCN 1
x_2_3_23_GCN 0
s_2_3_23_GCN 4.4303038492587243e-01
z_2_3_23_GCN 0
x_2_3_24_GCN 0
s_2_3_24_GCN 0
z_2_3_24_GCN 1
x_2_3_25_GCN 0
s_2_3_25_GCN 4.0309819929225632e-01
z_2_3_25_GCN 0
x_2_3_26_GCN 0
s_2_3_26_GCN 0
z_2_3_26_GCN 1
x_2_3_27_GCN 0
s_2_3_27_GCN 5.6699825406017113e-01
z_2_3_27_GCN 0
x_2_3_28_GCN 0
s_2_3_28_GCN 0
z_2_3_28_GCN 1
x_2_3_29_GCN 0
s_2_3_29_GCN 0
z_2_3_29_GCN 1
x_2_3_30_GCN 0
s_2_3_30_GCN 0
z_2_3_30_GCN 1
x_2_3_31_GCN 0
s_2_3_31_GCN 0
z_2_3_31_GCN 1
h[0] 0
h[1] 3.0045806343105204e+00
h[2] 0
h[3] 9.0782553673857058e-01
h[4] 0
h[5] 0
h[6] 2.3769894822654414e+00
h[7] 1.7172624864371961e+00
h[8] 0
h[9] 4.1017167373973251e+00
h[10] 0
h[11] 3.4321269583928515e+00
h[12] 0
h[13] 1.3638081351491278e+00
h[14] 0
h[15] 9.0613662197864112e-02
h[16] 8.9707141832513437e-01
h[17] 1.0125129065848342e+00
h[18] 8.6434037775571093e-01
h[19] 6.8652625035440923e-02
h[20] 0
h[21] 3.1233866651685185e+00
h[22] 4.3013172001958144e-01
h[23] 0
h[24] 1.2875977654774842e+00
h[25] 0
h[26] 0.62937733061956
h[27] 0
h[28] 8.5099712184938392e-01
h[29] 7.4697169368444039e-01
h[30] 1.9832581726044447e+00
h[31] 3.22429763564698
y 1.8336454032709377e+00
x_1_0_ANN 1.9710570444211593e+00
s_1_0_ANN 0
z_1_0_ANN 1
x_1_1_ANN 0
s_1_1_ANN 9.6688831547086118e-01
z_1_1_ANN 0
x_1_2_ANN 2.5326358344629063e+00
s_1_2_ANN 0
z_1_2_ANN 1
x_1_3_ANN 0
s_1_3_ANN 1.3497920513910313e+00
z_1_3_ANN 0
x_1_4_ANN 0
s_1_4_ANN 5.7920997229824089e-01
z_1_4_ANN 0
x_1_5_ANN 0
s_1_5_ANN 2.5924948418724253e-01
z_1_5_ANN 0
x_1_6_ANN 0
s_1_6_ANN 7.7067677486904318e-01
z_1_6_ANN 0
x_1_7_ANN 2.5812971860422254e+00
s_1_7_ANN 0
z_1_7_ANN 1
x_1_8_ANN 5.8262213399389562e-01
s_1_8_ANN 0
z_1_8_ANN 1
x_1_9_ANN 0
s_1_9_ANN 7.2262277664583485e-01
z_1_9_ANN 0
x_1_10_ANN 0
s_1_10_ANN 0.825769572605027
z_1_10_ANN 0
x_1_11_ANN 6.3519432529465869e-01
s_1_11_ANN 0
z_1_11_ANN 1
x_1_12_ANN 0
s_1_12_ANN 1.8498239885226225e-01
z_1_12_ANN 0
x_1_13_ANN 3.8042017003670918e+00
s_1_13_ANN 0
z_1_13_ANN 1
x_1_14_ANN 2.5383831409642461e+00
s_1_14_ANN 0
z_1_14_ANN 1
x_1_15_ANN 0
s_1_15_ANN 7.5322474400331618e-01
z_1_15_ANN 0
